p cnf 160 318
e 1 2 3 4 5 6 7 8 9 10 11 12 13 14 15 16 17 18 19 20 21 22 23 24 25 26 27 28 29 30 31 32 33 34 35 36 37 38 39 40 41 42 43 44 45 46 47 48 49 50 51 52 53 54 55 56 57 58 59 60 61 62 63 64 65 66 67 68 69 70 71 72 73 74 75 76 77 78 79 80 0
a 81 0
e 82 83 84 85 86 87 88 89 90 91 92 93 94 95 96 97 98 99 100 101 102 103 104 105 106 107 108 109 110 111 112 113 114 115 116 117 118 119 120 121 122 123 124 125 126 127 128 129 130 131 132 133 134 135 136 137 138 139 140 141 142 143 144 145 146 147 148 149 150 151 152 153 154 155 156 157 158 159 160 0
-1 -2 -82 0
-1 2 82 0
1 -2 82 0
1 2 -82 0
-82 -3 -83 0
-82 3 83 0
82 -3 83 0
82 3 -83 0
-83 -4 -84 0
-83 4 84 0
83 -4 84 0
83 4 -84 0
-84 -5 -85 0
-84 5 85 0
84 -5 85 0
84 5 -85 0
-85 -6 -86 0
-85 6 86 0
85 -6 86 0
85 6 -86 0
-86 -7 -87 0
-86 7 87 0
86 -7 87 0
86 7 -87 0
-87 -8 -88 0
-87 8 88 0
87 -8 88 0
87 8 -88 0
-88 -9 -89 0
-88 9 89 0
88 -9 89 0
88 9 -89 0
-89 -10 -90 0
-89 10 90 0
89 -10 90 0
89 10 -90 0
-90 -11 -91 0
-90 11 91 0
90 -11 91 0
90 11 -91 0
-91 -12 -92 0
-91 12 92 0
91 -12 92 0
91 12 -92 0
-92 -13 -93 0
-92 13 93 0
92 -13 93 0
92 13 -93 0
-93 -14 -94 0
-93 14 94 0
93 -14 94 0
93 14 -94 0
-94 -15 -95 0
-94 15 95 0
94 -15 95 0
94 15 -95 0
-95 -16 -96 0
-95 16 96 0
95 -16 96 0
95 16 -96 0
-96 -17 -97 0
-96 17 97 0
96 -17 97 0
96 17 -97 0
-97 -18 -98 0
-97 18 98 0
97 -18 98 0
97 18 -98 0
-98 -19 -99 0
-98 19 99 0
98 -19 99 0
98 19 -99 0
-99 -20 -100 0
-99 20 100 0
99 -20 100 0
99 20 -100 0
-100 -21 -101 0
-100 21 101 0
100 -21 101 0
100 21 -101 0
-101 -22 -102 0
-101 22 102 0
101 -22 102 0
101 22 -102 0
-102 -23 -103 0
-102 23 103 0
102 -23 103 0
102 23 -103 0
-103 -24 -104 0
-103 24 104 0
103 -24 104 0
103 24 -104 0
-104 -25 -105 0
-104 25 105 0
104 -25 105 0
104 25 -105 0
-105 -26 -106 0
-105 26 106 0
105 -26 106 0
105 26 -106 0
-106 -27 -107 0
-106 27 107 0
106 -27 107 0
106 27 -107 0
-107 -28 -108 0
-107 28 108 0
107 -28 108 0
107 28 -108 0
-108 -29 -109 0
-108 29 109 0
108 -29 109 0
108 29 -109 0
-109 -30 -110 0
-109 30 110 0
109 -30 110 0
109 30 -110 0
-110 -31 -111 0
-110 31 111 0
110 -31 111 0
110 31 -111 0
-111 -32 -112 0
-111 32 112 0
111 -32 112 0
111 32 -112 0
-112 -33 -113 0
-112 33 113 0
112 -33 113 0
112 33 -113 0
-113 -34 -114 0
-113 34 114 0
113 -34 114 0
113 34 -114 0
-114 -35 -115 0
-114 35 115 0
114 -35 115 0
114 35 -115 0
-115 -36 -116 0
-115 36 116 0
115 -36 116 0
115 36 -116 0
-116 -37 -117 0
-116 37 117 0
116 -37 117 0
116 37 -117 0
-117 -38 -118 0
-117 38 118 0
117 -38 118 0
117 38 -118 0
-118 -39 -119 0
-118 39 119 0
118 -39 119 0
118 39 -119 0
-119 -40 -120 0
-119 40 120 0
119 -40 120 0
119 40 -120 0
-120 -41 -121 0
-120 41 121 0
120 -41 121 0
120 41 -121 0
-121 -42 -122 0
-121 42 122 0
121 -42 122 0
121 42 -122 0
-122 -43 -123 0
-122 43 123 0
122 -43 123 0
122 43 -123 0
-123 -44 -124 0
-123 44 124 0
123 -44 124 0
123 44 -124 0
-124 -45 -125 0
-124 45 125 0
124 -45 125 0
124 45 -125 0
-125 -46 -126 0
-125 46 126 0
125 -46 126 0
125 46 -126 0
-126 -47 -127 0
-126 47 127 0
126 -47 127 0
126 47 -127 0
-127 -48 -128 0
-127 48 128 0
127 -48 128 0
127 48 -128 0
-128 -49 -129 0
-128 49 129 0
128 -49 129 0
128 49 -129 0
-129 -50 -130 0
-129 50 130 0
129 -50 130 0
129 50 -130 0
-130 -51 -131 0
-130 51 131 0
130 -51 131 0
130 51 -131 0
-131 -52 -132 0
-131 52 132 0
131 -52 132 0
131 52 -132 0
-132 -53 -133 0
-132 53 133 0
132 -53 133 0
132 53 -133 0
-133 -54 -134 0
-133 54 134 0
133 -54 134 0
133 54 -134 0
-134 -55 -135 0
-134 55 135 0
134 -55 135 0
134 55 -135 0
-135 -56 -136 0
-135 56 136 0
135 -56 136 0
135 56 -136 0
-136 -57 -137 0
-136 57 137 0
136 -57 137 0
136 57 -137 0
-137 -58 -138 0
-137 58 138 0
137 -58 138 0
137 58 -138 0
-138 -59 -139 0
-138 59 139 0
138 -59 139 0
138 59 -139 0
-139 -60 -140 0
-139 60 140 0
139 -60 140 0
139 60 -140 0
-140 -61 -141 0
-140 61 141 0
140 -61 141 0
140 61 -141 0
-141 -62 -142 0
-141 62 142 0
141 -62 142 0
141 62 -142 0
-142 -63 -143 0
-142 63 143 0
142 -63 143 0
142 63 -143 0
-143 -64 -144 0
-143 64 144 0
143 -64 144 0
143 64 -144 0
-144 -65 -145 0
-144 65 145 0
144 -65 145 0
144 65 -145 0
-145 -66 -146 0
-145 66 146 0
145 -66 146 0
145 66 -146 0
-146 -67 -147 0
-146 67 147 0
146 -67 147 0
146 67 -147 0
-147 -68 -148 0
-147 68 148 0
147 -68 148 0
147 68 -148 0
-148 -69 -149 0
-148 69 149 0
148 -69 149 0
148 69 -149 0
-149 -70 -150 0
-149 70 150 0
149 -70 150 0
149 70 -150 0
-150 -71 -151 0
-150 71 151 0
150 -71 151 0
150 71 -151 0
-151 -72 -152 0
-151 72 152 0
151 -72 152 0
151 72 -152 0
-152 -73 -153 0
-152 73 153 0
152 -73 153 0
152 73 -153 0
-153 -74 -154 0
-153 74 154 0
153 -74 154 0
153 74 -154 0
-154 -75 -155 0
-154 75 155 0
154 -75 155 0
154 75 -155 0
-155 -76 -156 0
-155 76 156 0
155 -76 156 0
155 76 -156 0
-156 -77 -157 0
-156 77 157 0
156 -77 157 0
156 77 -157 0
-157 -78 -158 0
-157 78 158 0
157 -78 158 0
157 78 -158 0
-158 -79 -159 0
-158 79 159 0
158 -79 159 0
158 79 -159 0
-159 -80 -160 0
-159 80 160 0
159 -80 160 0
159 80 -160 0
81 160 0
-81 -160 0
